Route #1: 74 13 4
Route #2: 28 42 78 65 25
Route #3: 93 75
Route #4: 79 11 85 30
Route #5: 3 77 63
Route #6: 31 46 35
Route #7: 21 56 94 80
Route #8: 32 33 53 73 95 24
Route #9: 14 49 6 37 87
Route #10: 86 9 92
Route #11: 54 70 1
Route #12: 15 22 41 20
Route #13: 81 51 83
Route #14: 34 64 96 48 26 47 38
Route #15: 23 61 100
Route #16: 39 10 18
Route #17: 69 16 55 76
Route #18: 7 2 45 43 29 36 72 57
Route #19: 58 12 5
Route #20: 66 84 90 68
Route #21: 59 60 82
Route #22: 44 67 88 40
Route #23: 8 17
Route #24: 50 91 52
Route #25: 71 62 99 98 89
Route #26: 27 97 19
Cost 27591.0000
Time 16.0003